c The graph in Fig 2. Corneil reference
p edge 11 25
e 1 2
e 1 3
e 2 3
e 2 4
e 2 5
e 2 6
e 2 7
e 2 8
e 2 9
e 2 10
e 3 4
e 4 5
e 4 6
e 4 7
e 4 8
e 4 9
e 4 10
e 5 6
e 6 7
e 6 8
e 6 9
e 6 11
e 7 8
e 8 9
e 8 10